************************************************************************
file with basedata            : md335_.bas
initial value random generator: 1296019474
************************************************************************
projects                      :  1
jobs (incl. supersource/sink ):  22
horizon                       :  153
RESOURCES
  - renewable                 :  2   R
  - nonrenewable              :  2   N
  - doubly constrained        :  0   D
************************************************************************
PROJECT INFORMATION:
pronr.  #jobs rel.date duedate tardcost  MPM-Time
    1     20      0       22        4       22
************************************************************************
PRECEDENCE RELATIONS:
jobnr.    #modes  #successors   successors
   1        1          3           2   3   4
   2        3          2           9  20
   3        3          2           5  18
   4        3          3           8  11  16
   5        3          3           6   7  14
   6        3          2          10  12
   7        3          3          12  13  16
   8        3          3          10  12  14
   9        3          1          15
  10        3          1          13
  11        3          2          13  15
  12        3          3          19  20  21
  13        3          2          17  19
  14        3          1          17
  15        3          1          18
  16        3          3          17  19  21
  17        3          1          20
  18        3          1          21
  19        3          1          22
  20        3          1          22
  21        3          1          22
  22        1          0        
************************************************************************
REQUESTS/DURATIONS:
jobnr. mode duration  R 1  R 2  N 1  N 2
------------------------------------------------------------------------
  1      1     0       0    0    0    0
  2      1     3      10    7    6    0
         2     4       6    6    2    0
         3     6       3    5    0    6
  3      1     4       7    3    0    7
         2     6       5    2    0    7
         3     8       3    2    0    7
  4      1     3       7    9    7    0
         2     8       7    8    0    7
         3    10       6    6    0    7
  5      1     1       7    7    6    0
         2     5       7    4    4    0
         3     6       7    2    3    0
  6      1     2       9    5    5    0
         2     4       8    4    2    0
         3     5       5    3    0    7
  7      1     4       6    2    0    7
         2     6       6    2    6    0
         3     7       2    1    3    0
  8      1     1       8    5    0   10
         2     5       7    3    0    7
         3     8       7    3    0    6
  9      1     1      10    7    0    6
         2     2       6    3    7    0
         3    10       2    2    0    6
 10      1     2       3    7    0    8
         2     6       2    7    0    8
         3     9       1    5    5    0
 11      1     6       9    6    0    3
         2     8       8    5    7    0
         3    10       6    5    0    1
 12      1     4       7    7    0    4
         2     5       3    7    6    0
         3     7       1    6    0    4
 13      1     5       4    4    8    0
         2     6       3    4    5    0
         3     8       3    3    0    4
 14      1     3       6    7    6    0
         2     4       6    6    0    7
         3     9       6    4    0    3
 15      1     7       9   10    5    0
         2     9       9    8    0    6
         3    10       9    7    0    6
 16      1     1       7    5    6    0
         2     5       7    4    6    0
         3     6       5    3    0    5
 17      1     7       4    7    0    9
         2     7       4    7    4    0
         3     8       3    6    0    9
 18      1     1       8    5    5    0
         2     5       7    4    0    4
         3     7       6    3    2    0
 19      1     3       8    8    0    8
         2     8       8    5    6    0
         3     9       7    1    5    0
 20      1     1      10   10    8    0
         2     2       7    5    0    5
         3     6       6    1    4    0
 21      1     1       4    1    5    0
         2     4       3    1    0    9
         3     4       4    1    3    0
 22      1     0       0    0    0    0
************************************************************************
RESOURCEAVAILABILITIES:
  R 1  R 2  N 1  N 2
   28   21   56   68
************************************************************************
MAXIMAL LAGS:
from  to  type  delay
    1   22   ES      0
    1    2   ES      0
    2   22   ES      0
    1    3   ES      0
    3   22   ES      0
    1    4   ES      0
    4   22   ES      0
    1    5   ES      0
    5   22   ES      0
    1    6   ES      0
    6   22   ES      0
    1    7   ES      0
    7   22   ES      0
    1    8   ES      0
    8   22   ES      0
    1    9   ES      0
    9   22   ES      0
    1   10   ES      0
   10   22   ES      0
    1   11   ES      0
   11   22   ES      0
    1   12   ES      0
   12   22   ES      0
    1   13   ES      0
   13   22   ES      0
    1   14   ES      0
   14   22   ES      0
    1   15   ES      0
   15   22   ES      0
    1   16   ES      0
   16   22   ES      0
    1   17   ES      0
   17   22   ES      0
    1   18   ES      0
   18   22   ES      0
    1   19   ES      0
   19   22   ES      0
    1   20   ES      0
   20   22   ES      0
    1   21   ES      0
   21   22   ES      0
    1   22   ES      0
    2    9   SS      3
    2    9   SE      4
    2    9   ES     11
    2    9   EE      8
    2   20   SS      3
    2   20   SE      3
    2   20   ES     -7
    2   20   EE      7
    3    5   SS     -5
    3    5   SE     10
    3    5   ES     -3
    3    5   EE     -6
    3   18   SS    -12
    3   18   SE     -9
    3   18   ES    -12
    3   18   EE      2
    4    8   SS      8
    4    8   SE     -9
    4    8   ES     11
    4    8   EE     -6
    4   11   SS      7
    4   11   SE      1
    4   11   ES      1
    4   11   EE    -11
    4   16   SS     -2
    4   16   SE     -1
    4   16   ES      5
    4   16   EE      8
    5    6   SS     -6
    5    6   SE    -12
    5    6   ES      8
    5    6   EE     -6
    5    7   SS     10
    5    7   SE     -3
    5    7   ES     -4
    5    7   EE    -10
    5   14   SS     -3
    5   14   SE     -3
    5   14   ES      4
    5   14   EE      5
    6   10   SS     -2
    6   10   SE     12
    6   10   ES    -12
    6   10   EE     -9
    6   12   SS      9
    6   12   SE     -2
    6   12   ES     -2
    6   12   EE      0
    7   12   SS     11
    7   12   SE      6
    7   12   ES      7
    7   12   EE    -12
    7   13   SS     -7
    7   13   SE     -6
    7   13   ES     -2
    7   13   EE     -2
    7   16   SS      9
    7   16   SE      3
    7   16   ES      3
    7   16   EE    -11
    8   10   SS      8
    8   10   SE     -8
    8   10   ES      3
    8   10   EE     -8
    8   12   SS      8
    8   12   SE      2
    8   12   ES      5
    8   12   EE     -2
    8   14   SS      2
    8   14   SE      1
    8   14   ES     11
    8   14   EE    -11
    9   15   SS      4
    9   15   SE     -3
    9   15   ES      6
    9   15   EE     11
   10   13   SS      9
   10   13   SE     -2
   10   13   ES      5
   10   13   EE      5
   11   13   SS    -12
   11   13   SE     -6
   11   13   ES      6
   11   13   EE      9
   11   15   SS     -2
   11   15   SE     -1
   11   15   ES    -10
   11   15   EE     -8
   12   19   SS     -4
   12   19   SE    -12
   12   19   ES     -2
   12   19   EE      0
   12   20   SS      8
   12   20   SE      5
   12   20   ES     -7
   12   20   EE      6
   12   21   SS      7
   12   21   SE      0
   12   21   ES     -7
   12   21   EE      7
   13   17   SS     -9
   13   17   SE     12
   13   17   ES     -3
   13   17   EE     10
   13   19   SS     -2
   13   19   SE     10
   13   19   ES    -11
   13   19   EE     -4
   14   17   SS      1
   14   17   SE    -10
   14   17   ES      3
   14   17   EE     -5
   15   18   SS     -1
   15   18   SE      2
   15   18   ES     -3
   15   18   EE     -6
   16   17   SS      4
   16   17   SE     -3
   16   17   ES     -7
   16   17   EE     -9
   16   19   SS     -1
   16   19   SE    -11
   16   19   ES     12
   16   19   EE     -6
   16   21   SS    -10
   16   21   SE      2
   16   21   ES      4
   16   21   EE    -12
   17   20   SS      3
   17   20   SE      4
   17   20   ES     -8
   17   20   EE     -6
   18   21   SS     -2
   18   21   SE      3
   18   21   ES     11
   18   21   EE      4
************************************************************************
